XXXXXXX
1.0
        3.9282000065         0.0000000000         0.0000000000
        0.0000000000         3.9282000065         0.0000000000
        0.0000000000         0.0000000000        20.0000000000
    Xx   Xx    X
    2    2    1
Direct
     0.000000000         0.500000000         0.500000000
     0.500000000         0.000000000         0.500000000
     0.000000000         0.000000000         0.598469973
     0.000000000         0.000000000         0.401530027
     0.500000000         0.500000000         0.500000000